Gurobi Optimizer version 9.1.0 build v9.1.0rc0 (linux64)
Thread count: 8 physical cores, 16 logical processors, using up to 16 threads
Optimize a model with 127786 rows, 120480 columns and 691170 nonzeros
Model fingerprint: 0x329bbd2f
Variable types: 0 continuous, 120480 integer (120480 binary)
Coefficient statistics:
  Matrix range     [1e+00, 1e+00]
  Objective range  [1e+01, 5e+04]
  Bounds range     [1e+00, 1e+00]
  RHS range        [1e+00, 5e+02]
Presolve added 0 rows and 2970 columns
Presolve removed 30 rows and 0 columns
Presolve time: 2.17s
Presolved: 127756 rows, 123450 columns, 520110 nonzeros
Variable types: 0 continuous, 123450 integer (123450 binary)
Found heuristic solution: objective 467877.00000

Concurrent LP optimizer: primal simplex, dual simplex, and barrier
Showing barrier log only...

Root barrier log...

Ordering time: 0.05s

Barrier statistics:
 Dense cols : 240
 AA' NZ     : 4.061e+05
 Factor NZ  : 1.637e+06 (roughly 120 MBytes of memory)
 Factor Ops : 2.201e+08 (less than 1 second per iteration)
 Threads    : 6

                  Objective                Residual
Iter       Primal          Dual         Primal    Dual     Compl     Time
   0   1.28789869e+08 -1.77958003e+08  2.83e+02 3.24e+01  1.67e+04     5s
   1   1.19143991e+06 -2.01713003e+08  7.46e+00 1.15e+04  7.16e+02     5s
   2   6.66801314e+05 -4.15918782e+07  1.71e+00 1.37e+03  1.32e+02     6s
   3   6.25759508e+05 -5.37482344e+06  1.26e+00 1.51e+02  1.85e+01     6s
   4   5.06203059e+05 -1.11334628e+06  1.17e-01 3.51e+01  4.43e+00     6s
   5   4.85893861e+05  1.28804040e+05  7.52e-02 5.59e+00  9.58e-01     6s
   6   4.76970769e+05  2.52184218e+05  6.48e-02 2.75e+00  5.98e-01     7s
   7   4.64594126e+05  3.24864642e+05  5.33e-02 1.30e+00  3.68e-01     7s
   8   4.49653152e+05  3.54803069e+05  3.98e-02 7.96e-01  2.49e-01     8s
   9   4.42870625e+05  3.65563017e+05  3.49e-02 1.23e+00  2.02e-01     8s
  10   4.33862064e+05  3.76039011e+05  2.89e-02 7.41e-01  1.51e-01     9s
  11   4.24020329e+05  3.82597088e+05  2.23e-02 4.97e-01  1.08e-01     9s
  12   4.12514291e+05  3.85467212e+05  1.42e-02 3.58e-01  7.03e-02    10s
  13   4.08703149e+05  3.87235745e+05  1.13e-02 2.76e-01  5.57e-02    10s
  14   4.05564384e+05  3.88985666e+05  9.00e-03 1.89e-01  4.30e-02    10s
  15   4.02455748e+05  3.90025950e+05  6.75e-03 1.42e-01  3.22e-02    11s
  16   4.00504864e+05  3.90542781e+05  5.29e-03 1.16e-01  2.59e-02    11s
  17   3.99418635e+05  3.90964272e+05  4.56e-03 9.74e-02  2.19e-02    11s
  18   3.97859691e+05  3.91424989e+05  3.43e-03 7.81e-02  1.67e-02    12s
  19   3.96901937e+05  3.91758595e+05  2.73e-03 6.41e-02  1.33e-02    12s
  20   3.96301710e+05  3.91968923e+05  2.27e-03 5.51e-02  1.13e-02    12s
  21   3.96027537e+05  3.92229959e+05  2.06e-03 4.42e-02  9.85e-03    13s
  22   3.95537986e+05  3.92393374e+05  1.71e-03 3.66e-02  8.15e-03    13s
  23   3.95179372e+05  3.92514638e+05  1.44e-03 3.20e-02  6.91e-03    13s
  24   3.94797380e+05  3.92714890e+05  1.14e-03 2.38e-02  5.40e-03    14s
  25   3.94681766e+05  3.92783521e+05  1.06e-03 2.08e-02  4.92e-03    14s
  26   3.94419884e+05  3.92876193e+05  8.64e-04 1.70e-02  4.00e-03    14s
  27   3.94131361e+05  3.92944404e+05  6.44e-04 1.40e-02  3.08e-03    15s
  28   3.93992483e+05  3.93072803e+05  5.42e-04 8.75e-03  2.38e-03    15s
  29   3.93835360e+05  3.93114691e+05  4.24e-04 6.90e-03  1.86e-03    16s
  30   3.93775048e+05  3.93154282e+05  3.80e-04 5.33e-03  1.60e-03    16s
  31   3.93652936e+05  3.93176210e+05  2.90e-04 4.34e-03  1.23e-03    16s
  32   3.93607407e+05  3.93205327e+05  2.56e-04 3.17e-03  1.04e-03    17s
  33   3.93552168e+05  3.93221829e+05  2.18e-04 2.44e-03  8.49e-04    17s
  34   3.93495154e+05  3.93233654e+05  1.72e-04 1.89e-03  6.72e-04    17s
  35   3.93415972e+05  3.93243942e+05  1.13e-04 1.46e-03  4.42e-04    18s
  36   3.93387346e+05  3.93249657e+05  9.00e-05 1.26e-03  3.54e-04    18s
  37   3.93360413e+05  3.93260326e+05  6.71e-05 7.86e-04  2.57e-04    18s
  38   3.93345862e+05  3.93265421e+05  5.48e-05 5.52e-04  2.06e-04    19s
  39   3.93323768e+05  3.93270785e+05  3.61e-05 3.32e-04  1.36e-04    19s
  40   3.93303414e+05  3.93275067e+05  1.91e-05 1.66e-04  7.28e-05    19s
  41   3.93292396e+05  3.93276692e+05  9.93e-06 9.91e-05  4.04e-05    20s
  42   3.93287070e+05  3.93277589e+05  5.52e-06 6.68e-05  2.45e-05    20s
  43   3.93285135e+05  3.93279461e+05  3.99e-06 1.55e-05  1.45e-05    20s
  44   3.93283450e+05  3.93279604e+05  2.66e-06 1.30e-05  9.86e-06    20s
  45   3.93283225e+05  3.93279861e+05  2.48e-06 6.56e-06  8.59e-06    21s
  46   3.93280770e+05  3.93280026e+05  5.13e-07 7.19e-07  1.91e-06    21s
  47   3.93280101e+05  3.93280068e+05  2.39e-08 3.28e-07  8.47e-08    21s
  48   3.93280068e+05  3.93280068e+05  6.72e-10 3.62e-08  5.95e-11    21s

Barrier solved model in 48 iterations and 21.15 seconds
Optimal objective 3.93280068e+05


Root crossover log...

   60577 DPushes remaining with DInf 0.0000000e+00                21s
       0 DPushes remaining with DInf 0.0000000e+00                22s

     633 PPushes remaining with PInf 0.0000000e+00                22s
       0 PPushes remaining with PInf 0.0000000e+00                22s

  Push phase complete: Pinf 0.0000000e+00, Dinf 6.8786310e-11     22s


Root simplex log...

Iteration    Objective       Primal Inf.    Dual Inf.      Time
    8841    3.9328007e+05   0.000000e+00   0.000000e+00     22s
    8841    3.9328007e+05   0.000000e+00   0.000000e+00     22s

Solved with barrier

Root relaxation: objective 3.932801e+05, 8841 iterations, 18.07 seconds

    Nodes    |    Current Node    |     Objective Bounds      |     Work
 Expl Unexpl |  Obj  Depth IntInf | Incumbent    BestBd   Gap | It/Node Time

     0     0 393280.068    0 8713 467877.000 393280.068  15.9%     -   25s
H    0     0                    397404.00000 393280.068  1.04%     -   26s
H    0     0                    397308.00000 393280.068  1.01%     -   26s
H    0     0                    397166.00000 393280.068  0.98%     -   27s
     0     0 393285.552    0 9013 397166.000 393285.552  0.98%     -   34s
H    0     0                    396260.00000 393285.552  0.75%     -   42s
     0     0 393287.801    0 9026 396260.000 393287.801  0.75%     -   47s
H    0     0                    396207.00000 393287.801  0.74%     -   49s
     0     0 393288.098    0 9024 396207.000 393288.098  0.74%     -   50s
     0     0 393288.098    0 9024 396207.000 393288.098  0.74%     -   65s
H    0     0                    396201.00000 393288.098  0.74%     -   81s
     0     2 393288.098    0 9024 396201.000 393288.098  0.74%     -   84s
     1     4 393611.491    1 8559 396201.000 393288.112  0.74% 11483  130s
     3     8 393790.799    2 8582 396201.000 393611.781  0.65%  7720  181s
     7    16 393948.757    3 8716 396201.000 393664.000  0.64%  7128  216s
    15    22 394783.633    4 7968 396201.000 393712.686  0.63%  7064  300s

Cutting planes:
  Gomory: 3

Explored 21 nodes (157495 simplex iterations) in 300.07 seconds
Thread count was 16 (of 16 available processors)

Solution count 7: 396201 396207 396260 ... 467877

Time limit reached
Best objective 3.962010000000e+05, best bound 3.937130000000e+05, gap 0.6280%

User-callback calls 31840, time in user-callback 0.48 sec
['/opt/local/stow/gurobi910/linux64/lib/libgurobi91.so']
Result: runtime=300.01sec; objective=396201
Solution written to /autofs/unityaccount/cremi/mdeboute/Bureau/multi-period-flp/solution/instMulti_I30_J500_T8_1_result.txt
